\ENCODING=ISO-8859-1
\Problem name: ilog.cplex

Minimize
 obj:
Subject To
 C13(0):      D0 >= 0
 C1(0,0,1,0): P(0,0,1,0) + P(1,0,0,0)  = 1
 C3(0,0,1,0): - 55.9370025 P(1,0,0,0) + W(0,0) - W(1,0) - 0.42 M(1,0,1)
              - 55.9370025 M(1,0,0) - 55.9370025 M(1,0,2) >= -110.297555
 C4(0,0,1,0): - 55.9370025 P(1,0,0,0) + W(0,0) - W(1,0) - 0.42 M(1,0,1)
              - 55.9370025 M(0,0,0) - 55.9370025 M(0,0,1) >= -110.297555
 C5(0,0,1,0): - 55.9370025 P(1,0,0,0) + W(0,0) - 0.42 M(1,0,1) >= -55.9370025
 C1(0,0,1,1): P(0,0,1,1) + P(1,1,0,0)  = 1
 C3(0,0,1,1): W(0,0) - 55.9370025 P(1,1,0,0) - W(1,1) - 0.42 M(1,1,1)
              - 55.9370025 M(1,1,0) - 55.9370025 M(1,1,2) >= -106.75137
 C4(0,0,1,1): W(0,0) - 55.9370025 M(0,0,0) - 55.9370025 M(0,0,1)
              - 55.9370025 P(1,1,0,0) - W(1,1) - 0.42 M(1,1,1) >= -106.75137
 C5(0,0,1,1): W(0,0) - 55.9370025 P(1,1,0,0) - 0.42 M(1,1,1) >= -55.9370025
 C1(0,0,2,0): P(0,0,2,0) + P(2,0,0,0)  = 1
 C3(0,0,2,0): W(0,0) - 55.9370025 P(2,0,0,0) - W(2,0) - 0.16 M(2,0,1)
              - 55.9370025 M(2,0,0) - 55.9370025 M(2,0,2) >= -102.994305
 C4(0,0,2,0): W(0,0) - 55.9370025 M(0,0,0) - 55.9370025 M(0,0,1)
              - 55.9370025 P(2,0,0,0) - W(2,0) - 0.16 M(2,0,1) >= -102.994305
 C5(0,0,2,0): W(0,0) - 55.9370025 P(2,0,0,0) - 0.16 M(2,0,1) >= -55.9370025
 C1(0,0,2,1): P(0,0,2,1) + P(2,1,0,0)  = 1
 C3(0,0,2,1): W(0,0) - 55.9370025 P(2,1,0,0) - W(2,1) - 0.16 M(2,1,1)
              - 55.9370025 M(2,1,0) - 55.9370025 M(2,1,2) >= -104.289105
 C4(0,0,2,1): W(0,0) - 55.9370025 M(0,0,0) - 55.9370025 M(0,0,1)
              - 55.9370025 P(2,1,0,0) - W(2,1) - 0.16 M(2,1,1) >= -104.289105
 C5(0,0,2,1): W(0,0) - 55.9370025 P(2,1,0,0) - 0.16 M(2,1,1) >= -55.9370025
 C1(0,0,3,0): P(0,0,3,0) + P(3,0,0,0)  = 1
 C3(0,0,3,0): W(0,0) - 55.9370025 P(3,0,0,0) - W(3,0) - 0.16 M(3,0,1)
              - 55.9370025 M(3,0,0) - 55.9370025 M(3,0,2) >= -110.634005
 C4(0,0,3,0): W(0,0) - 55.9370025 M(0,0,0) - 55.9370025 M(0,0,1)
              - 55.9370025 P(3,0,0,0) - W(3,0) - 0.16 M(3,0,1) >= -110.634005
 C5(0,0,3,0): W(0,0) - 55.9370025 P(3,0,0,0) - 0.16 M(3,0,1) >= -55.9370025
 C1(0,0,3,1): P(0,0,3,1) + P(3,1,0,0)  = 1
 C3(0,0,3,1): W(0,0) - 55.9370025 P(3,1,0,0) - W(3,1) - 0.16 M(3,1,1)
              - 55.9370025 M(3,1,0) - 55.9370025 M(3,1,2) >= -110.454005
 C4(0,0,3,1): W(0,0) - 55.9370025 M(0,0,0) - 55.9370025 M(0,0,1)
              - 55.9370025 P(3,1,0,0) - W(3,1) - 0.16 M(3,1,1) >= -110.454005
 C5(0,0,3,1): W(0,0) - 55.9370025 P(3,1,0,0) - 0.16 M(3,1,1) >= -55.9370025
 C1(0,0,3,2): P(0,0,3,2) + P(3,2,0,0)  = 1
 C3(0,0,3,2): W(0,0) - 55.9370025 P(3,2,0,0) - W(3,2) - 0.16 M(3,2,1)
              - 55.9370025 M(3,2,0) - 55.9370025 M(3,2,2) >= -109.364005
 C4(0,0,3,2): W(0,0) - 55.9370025 M(0,0,0) - 55.9370025 M(0,0,1)
              - 55.9370025 P(3,2,0,0) - W(3,2) - 0.16 M(3,2,1) >= -109.364005
 C5(0,0,3,2): W(0,0) - 55.9370025 P(3,2,0,0) - 0.16 M(3,2,1) >= -55.9370025
 C7(0,0):     M(0,0,0) + M(0,0,1) + M(0,0,2)  = 1
 C8(0,0):     M(0,0,2)  = 1
 C9(0):       L(0,0) + L(0,1) + L(0,2)  = 1
 C10(0):      L(0,1) >= 1
 C13(1):      D1 >= 0
 C1(1,0,0,0): P(0,0,1,0) + P(1,0,0,0)  = 1
 C3(1,0,0,0): - 55.9370025 P(0,0,1,0) - W(0,0) + W(1,0) - 55.9370025 M(0,0,0)
              - 0.42 M(0,0,1) - 55.9370025 M(0,0,2) >= -104.976355
 C4(1,0,0,0): - 55.9370025 P(0,0,1,0) - W(0,0) + W(1,0) - 55.9370025 M(1,0,1)
              - 55.9370025 M(1,0,0) - 0.42 M(0,0,1) >= -104.976355
 C5(1,0,0,0): - 55.9370025 P(0,0,1,0) + W(1,0) - 0.42 M(0,0,1) >= -55.9370025
 C1(1,0,2,0): P(1,0,2,0) + P(2,0,1,0)  = 1
 C3(1,0,2,0): W(1,0) - W(2,0) - 0.16 M(2,0,1) - 55.9370025 M(2,0,0)
              - 55.9370025 M(2,0,2) - 55.9370025 P(2,0,1,0) >= -102.994305
 C4(1,0,2,0): W(1,0) - 55.9370025 M(1,0,1) - 55.9370025 M(1,0,0) - W(2,0)
              - 0.16 M(2,0,1) - 55.9370025 P(2,0,1,0) >= -102.994305
 C5(1,0,2,0): W(1,0) - 0.16 M(2,0,1) - 55.9370025 P(2,0,1,0) >= -55.9370025
 C1(1,0,2,1): P(1,0,2,1) + P(2,1,1,0)  = 1
 C3(1,0,2,1): W(1,0) - W(2,1) - 0.16 M(2,1,1) - 55.9370025 M(2,1,0)
              - 55.9370025 M(2,1,2) - 55.9370025 P(2,1,1,0) >= -104.289105
 C4(1,0,2,1): W(1,0) - 55.9370025 M(1,0,1) - 55.9370025 M(1,0,0) - W(2,1)
              - 0.16 M(2,1,1) - 55.9370025 P(2,1,1,0) >= -104.289105
 C5(1,0,2,1): W(1,0) - 0.16 M(2,1,1) - 55.9370025 P(2,1,1,0) >= -55.9370025
 C1(1,0,3,0): P(1,0,3,0) + P(3,0,1,0)  = 1
 C3(1,0,3,0): W(1,0) - W(3,0) - 0.16 M(3,0,1) - 55.9370025 M(3,0,0)
              - 55.9370025 M(3,0,2) - 55.9370025 P(3,0,1,0) >= -110.634005
 C4(1,0,3,0): W(1,0) - 55.9370025 M(1,0,1) - 55.9370025 M(1,0,0) - W(3,0)
              - 0.16 M(3,0,1) - 55.9370025 P(3,0,1,0) >= -110.634005
 C5(1,0,3,0): W(1,0) - 0.16 M(3,0,1) - 55.9370025 P(3,0,1,0) >= -55.9370025
 C1(1,0,3,1): P(1,0,3,1) + P(3,1,1,0)  = 1
 C3(1,0,3,1): W(1,0) - W(3,1) - 0.16 M(3,1,1) - 55.9370025 M(3,1,0)
              - 55.9370025 M(3,1,2) - 55.9370025 P(3,1,1,0) >= -110.454005
 C4(1,0,3,1): W(1,0) - 55.9370025 M(1,0,1) - 55.9370025 M(1,0,0) - W(3,1)
              - 0.16 M(3,1,1) - 55.9370025 P(3,1,1,0) >= -110.454005
 C5(1,0,3,1): W(1,0) - 0.16 M(3,1,1) - 55.9370025 P(3,1,1,0) >= -55.9370025
 C1(1,0,3,2): P(1,0,3,2) + P(3,2,1,0)  = 1
 C3(1,0,3,2): W(1,0) - W(3,2) - 0.16 M(3,2,1) - 55.9370025 M(3,2,0)
              - 55.9370025 M(3,2,2) - 55.9370025 P(3,2,1,0) >= -109.364005
 C4(1,0,3,2): W(1,0) - 55.9370025 M(1,0,1) - 55.9370025 M(1,0,0) - W(3,2)
              - 0.16 M(3,2,1) - 55.9370025 P(3,2,1,0) >= -109.364005
 C5(1,0,3,2): W(1,0) - 0.16 M(3,2,1) - 55.9370025 P(3,2,1,0) >= -55.9370025
 C7(1,0):     M(1,0,1) + M(1,0,0) + M(1,0,2)  = 1
 C8(1,0):     M(1,0,2)  = 1
 C1(1,1,0,0): P(0,0,1,1) + P(1,1,0,0)  = 1
 C3(1,1,0,0): - W(0,0) - 55.9370025 M(0,0,0) - 0.42 M(0,0,1)
              - 55.9370025 P(0,0,1,1) + W(1,1) - 55.9370025 M(0,0,2)
              >= -104.976355
 C4(1,1,0,0): - W(0,0) - 0.42 M(0,0,1) - 55.9370025 P(0,0,1,1) + W(1,1)
              - 55.9370025 M(1,1,1) - 55.9370025 M(1,1,0) >= -104.976355
 C5(1,1,0,0): - 0.42 M(0,0,1) - 55.9370025 P(0,0,1,1) + W(1,1) >= -55.9370025
 C1(1,1,2,0): P(1,1,2,0) + P(2,0,1,1)  = 1
 C3(1,1,2,0): W(1,1) - W(2,0) - 0.16 M(2,0,1) - 55.9370025 M(2,0,0)
              - 55.9370025 M(2,0,2) - 55.9370025 P(2,0,1,1) >= -102.994305
 C4(1,1,2,0): W(1,1) - 55.9370025 M(1,1,1) - 55.9370025 M(1,1,0) - W(2,0)
              - 0.16 M(2,0,1) - 55.9370025 P(2,0,1,1) >= -102.994305
 C5(1,1,2,0): W(1,1) - 0.16 M(2,0,1) - 55.9370025 P(2,0,1,1) >= -55.9370025
 C1(1,1,2,1): P(1,1,2,1) + P(2,1,1,1)  = 1
 C3(1,1,2,1): W(1,1) - W(2,1) - 0.16 M(2,1,1) - 55.9370025 M(2,1,0)
              - 55.9370025 M(2,1,2) - 55.9370025 P(2,1,1,1) >= -104.289105
 C4(1,1,2,1): W(1,1) - 55.9370025 M(1,1,1) - 55.9370025 M(1,1,0) - W(2,1)
              - 0.16 M(2,1,1) - 55.9370025 P(2,1,1,1) >= -104.289105
 C5(1,1,2,1): W(1,1) - 0.16 M(2,1,1) - 55.9370025 P(2,1,1,1) >= -55.9370025
 C1(1,1,3,0): P(1,1,3,0) + P(3,0,1,1)  = 1
 C3(1,1,3,0): W(1,1) - W(3,0) - 0.16 M(3,0,1) - 55.9370025 M(3,0,0)
              - 55.9370025 M(3,0,2) - 55.9370025 P(3,0,1,1) >= -110.634005
 C4(1,1,3,0): W(1,1) - 55.9370025 M(1,1,1) - 55.9370025 M(1,1,0) - W(3,0)
              - 0.16 M(3,0,1) - 55.9370025 P(3,0,1,1) >= -110.634005
 C5(1,1,3,0): W(1,1) - 0.16 M(3,0,1) - 55.9370025 P(3,0,1,1) >= -55.9370025
 C1(1,1,3,1): P(1,1,3,1) + P(3,1,1,1)  = 1
 C3(1,1,3,1): W(1,1) - W(3,1) - 0.16 M(3,1,1) - 55.9370025 M(3,1,0)
              - 55.9370025 M(3,1,2) - 55.9370025 P(3,1,1,1) >= -110.454005
 C4(1,1,3,1): W(1,1) - 55.9370025 M(1,1,1) - 55.9370025 M(1,1,0) - W(3,1)
              - 0.16 M(3,1,1) - 55.9370025 P(3,1,1,1) >= -110.454005
 C5(1,1,3,1): W(1,1) - 0.16 M(3,1,1) - 55.9370025 P(3,1,1,1) >= -55.9370025
 C1(1,1,3,2): P(1,1,3,2) + P(3,2,1,1)  = 1
 C3(1,1,3,2): W(1,1) - W(3,2) - 0.16 M(3,2,1) - 55.9370025 M(3,2,0)
              - 55.9370025 M(3,2,2) - 55.9370025 P(3,2,1,1) >= -109.364005
 C4(1,1,3,2): W(1,1) - 55.9370025 M(1,1,1) - 55.9370025 M(1,1,0) - W(3,2)
              - 0.16 M(3,2,1) - 55.9370025 P(3,2,1,1) >= -109.364005
 C5(1,1,3,2): W(1,1) - 0.16 M(3,2,1) - 55.9370025 P(3,2,1,1) >= -55.9370025
 C2(1,1):     - W(1,0) - 0.42 M(1,0,1) + W(1,1) >= 1.57645
 C7(1,1):     M(1,1,1) + M(1,1,0) + M(1,1,2)  = 1
 C8(1,1):     M(1,1,2)  = 0
 C9(1):       L(1,0) + L(1,1) + L(1,2)  = 1
 C10(1):      L(1,1) >= 1
 C13(2):      D2 >= 0
 C1(2,0,0,0): P(0,0,2,0) + P(2,0,0,0)  = 1
 C3(2,0,0,0): - W(0,0) - 55.9370025 M(0,0,0) - 0.42 M(0,0,1)
              - 55.9370025 P(0,0,2,0) + W(2,0) - 55.9370025 M(0,0,2)
              >= -104.976355
 C4(2,0,0,0): - W(0,0) - 0.42 M(0,0,1) - 55.9370025 P(0,0,2,0) + W(2,0)
              - 55.9370025 M(2,0,1) - 55.9370025 M(2,0,0) >= -104.976355
 C5(2,0,0,0): - 0.42 M(0,0,1) - 55.9370025 P(0,0,2,0) + W(2,0) >= -55.9370025
 C1(2,0,1,0): P(1,0,2,0) + P(2,0,1,0)  = 1
 C3(2,0,1,0): - W(1,0) - 0.42 M(1,0,1) - 55.9370025 M(1,0,0)
              - 55.9370025 M(1,0,2) + W(2,0) - 55.9370025 P(1,0,2,0)
              >= -110.297555
 C4(2,0,1,0): - W(1,0) - 0.42 M(1,0,1) + W(2,0) - 55.9370025 M(2,0,1)
              - 55.9370025 M(2,0,0) - 55.9370025 P(1,0,2,0) >= -110.297555
 C5(2,0,1,0): - 0.42 M(1,0,1) + W(2,0) - 55.9370025 P(1,0,2,0) >= -55.9370025
 C1(2,0,1,1): P(1,1,2,0) + P(2,0,1,1)  = 1
 C3(2,0,1,1): - W(1,1) - 0.42 M(1,1,1) - 55.9370025 M(1,1,0)
              - 55.9370025 M(1,1,2) + W(2,0) - 55.9370025 P(1,1,2,0)
              >= -106.75137
 C4(2,0,1,1): - W(1,1) - 0.42 M(1,1,1) + W(2,0) - 55.9370025 M(2,0,1)
              - 55.9370025 M(2,0,0) - 55.9370025 P(1,1,2,0) >= -106.75137
 C5(2,0,1,1): - 0.42 M(1,1,1) + W(2,0) - 55.9370025 P(1,1,2,0) >= -55.9370025
 C1(2,0,3,0): P(2,0,3,0) + P(3,0,2,0)  = 1
 C3(2,0,3,0): W(2,0) - W(3,0) - 0.16 M(3,0,1) - 55.9370025 M(3,0,0)
              - 55.9370025 M(3,0,2) - 55.9370025 P(3,0,2,0) >= -110.634005
 C4(2,0,3,0): W(2,0) - 55.9370025 M(2,0,1) - 55.9370025 M(2,0,0) - W(3,0)
              - 0.16 M(3,0,1) - 55.9370025 P(3,0,2,0) >= -110.634005
 C5(2,0,3,0): W(2,0) - 0.16 M(3,0,1) - 55.9370025 P(3,0,2,0) >= -55.9370025
 C1(2,0,3,1): P(2,0,3,1) + P(3,1,2,0)  = 1
 C3(2,0,3,1): W(2,0) - W(3,1) - 0.16 M(3,1,1) - 55.9370025 M(3,1,0)
              - 55.9370025 M(3,1,2) - 55.9370025 P(3,1,2,0) >= -110.454005
 C4(2,0,3,1): W(2,0) - 55.9370025 M(2,0,1) - 55.9370025 M(2,0,0) - W(3,1)
              - 0.16 M(3,1,1) - 55.9370025 P(3,1,2,0) >= -110.454005
 C5(2,0,3,1): W(2,0) - 0.16 M(3,1,1) - 55.9370025 P(3,1,2,0) >= -55.9370025
 C1(2,0,3,2): P(2,0,3,2) + P(3,2,2,0)  = 1
 C3(2,0,3,2): W(2,0) - W(3,2) - 0.16 M(3,2,1) - 55.9370025 M(3,2,0)
              - 55.9370025 M(3,2,2) - 55.9370025 P(3,2,2,0) >= -109.364005
 C4(2,0,3,2): W(2,0) - 55.9370025 M(2,0,1) - 55.9370025 M(2,0,0) - W(3,2)
              - 0.16 M(3,2,1) - 55.9370025 P(3,2,2,0) >= -109.364005
 C5(2,0,3,2): W(2,0) - 0.16 M(3,2,1) - 55.9370025 P(3,2,2,0) >= -55.9370025
 C7(2,0):     M(2,0,1) + M(2,0,0) + M(2,0,2)  = 1
 C8(2,0):     M(2,0,2)  = 0
 C1(2,1,0,0): P(0,0,2,1) + P(2,1,0,0)  = 1
 C3(2,1,0,0): - W(0,0) - 55.9370025 M(0,0,0) - 0.42 M(0,0,1)
              - 55.9370025 P(0,0,2,1) + W(2,1) - 55.9370025 M(0,0,2)
              >= -104.976355
 C4(2,1,0,0): - W(0,0) - 0.42 M(0,0,1) - 55.9370025 P(0,0,2,1) + W(2,1)
              - 55.9370025 M(2,1,1) - 55.9370025 M(2,1,0) >= -104.976355
 C5(2,1,0,0): - 0.42 M(0,0,1) - 55.9370025 P(0,0,2,1) + W(2,1) >= -55.9370025
 C1(2,1,1,0): P(1,0,2,1) + P(2,1,1,0)  = 1
 C3(2,1,1,0): - W(1,0) - 0.42 M(1,0,1) - 55.9370025 M(1,0,0)
              - 55.9370025 M(1,0,2) + W(2,1) - 55.9370025 P(1,0,2,1)
              >= -110.297555
 C4(2,1,1,0): - W(1,0) - 0.42 M(1,0,1) + W(2,1) - 55.9370025 M(2,1,1)
              - 55.9370025 M(2,1,0) - 55.9370025 P(1,0,2,1) >= -110.297555
 C5(2,1,1,0): - 0.42 M(1,0,1) + W(2,1) - 55.9370025 P(1,0,2,1) >= -55.9370025
 C1(2,1,1,1): P(1,1,2,1) + P(2,1,1,1)  = 1
 C3(2,1,1,1): - W(1,1) - 0.42 M(1,1,1) - 55.9370025 M(1,1,0)
              - 55.9370025 M(1,1,2) + W(2,1) - 55.9370025 P(1,1,2,1)
              >= -106.75137
 C4(2,1,1,1): - W(1,1) - 0.42 M(1,1,1) + W(2,1) - 55.9370025 M(2,1,1)
              - 55.9370025 M(2,1,0) - 55.9370025 P(1,1,2,1) >= -106.75137
 C5(2,1,1,1): - 0.42 M(1,1,1) + W(2,1) - 55.9370025 P(1,1,2,1) >= -55.9370025
 C1(2,1,3,0): P(2,1,3,0) + P(3,0,2,1)  = 1
 C3(2,1,3,0): W(2,1) - W(3,0) - 0.16 M(3,0,1) - 55.9370025 M(3,0,0)
              - 55.9370025 M(3,0,2) - 55.9370025 P(3,0,2,1) >= -110.634005
 C4(2,1,3,0): W(2,1) - 55.9370025 M(2,1,1) - 55.9370025 M(2,1,0) - W(3,0)
              - 0.16 M(3,0,1) - 55.9370025 P(3,0,2,1) >= -110.634005
 C5(2,1,3,0): W(2,1) - 0.16 M(3,0,1) - 55.9370025 P(3,0,2,1) >= -55.9370025
 C1(2,1,3,1): P(2,1,3,1) + P(3,1,2,1)  = 1
 C3(2,1,3,1): W(2,1) - W(3,1) - 0.16 M(3,1,1) - 55.9370025 M(3,1,0)
              - 55.9370025 M(3,1,2) - 55.9370025 P(3,1,2,1) >= -110.454005
 C4(2,1,3,1): W(2,1) - 55.9370025 M(2,1,1) - 55.9370025 M(2,1,0) - W(3,1)
              - 0.16 M(3,1,1) - 55.9370025 P(3,1,2,1) >= -110.454005
 C5(2,1,3,1): W(2,1) - 0.16 M(3,1,1) - 55.9370025 P(3,1,2,1) >= -55.9370025
 C1(2,1,3,2): P(2,1,3,2) + P(3,2,2,1)  = 1
 C3(2,1,3,2): W(2,1) - W(3,2) - 0.16 M(3,2,1) - 55.9370025 M(3,2,0)
              - 55.9370025 M(3,2,2) - 55.9370025 P(3,2,2,1) >= -109.364005
 C4(2,1,3,2): W(2,1) - 55.9370025 M(2,1,1) - 55.9370025 M(2,1,0) - W(3,2)
              - 0.16 M(3,2,1) - 55.9370025 P(3,2,2,1) >= -109.364005
 C5(2,1,3,2): W(2,1) - 0.16 M(3,2,1) - 55.9370025 P(3,2,2,1) >= -55.9370025
 C2(2,1):     - W(2,0) - 0.16 M(2,0,1) + W(2,1) >= 8.8797
 C7(2,1):     M(2,1,1) + M(2,1,0) + M(2,1,2)  = 1
 C8(2,1):     M(2,1,2)  = 1
 C9(2):       L(2,0) + L(2,1) + L(2,2)  = 1
 C10(2):      L(2,1) >= 0
 C13(3):      D3 >= 0
 C1(3,0,0,0): P(0,0,3,0) + P(3,0,0,0)  = 1
 C3(3,0,0,0): - W(0,0) - 55.9370025 M(0,0,0) - 0.42 M(0,0,1)
              - 55.9370025 P(0,0,3,0) + W(3,0) - 55.9370025 M(0,0,2)
              >= -104.976355
 C4(3,0,0,0): - W(0,0) - 0.42 M(0,0,1) - 55.9370025 P(0,0,3,0) + W(3,0)
              - 55.9370025 M(3,0,1) - 55.9370025 M(3,0,0) >= -104.976355
 C5(3,0,0,0): - 0.42 M(0,0,1) - 55.9370025 P(0,0,3,0) + W(3,0) >= -55.9370025
 C1(3,0,1,0): P(1,0,3,0) + P(3,0,1,0)  = 1
 C3(3,0,1,0): - W(1,0) - 0.42 M(1,0,1) - 55.9370025 M(1,0,0)
              - 55.9370025 M(1,0,2) + W(3,0) - 55.9370025 P(1,0,3,0)
              >= -110.297555
 C4(3,0,1,0): - W(1,0) - 0.42 M(1,0,1) + W(3,0) - 55.9370025 M(3,0,1)
              - 55.9370025 M(3,0,0) - 55.9370025 P(1,0,3,0) >= -110.297555
 C5(3,0,1,0): - 0.42 M(1,0,1) + W(3,0) - 55.9370025 P(1,0,3,0) >= -55.9370025
 C1(3,0,1,1): P(1,1,3,0) + P(3,0,1,1)  = 1
 C3(3,0,1,1): - W(1,1) - 0.42 M(1,1,1) - 55.9370025 M(1,1,0)
              - 55.9370025 M(1,1,2) + W(3,0) - 55.9370025 P(1,1,3,0)
              >= -106.75137
 C4(3,0,1,1): - W(1,1) - 0.42 M(1,1,1) + W(3,0) - 55.9370025 M(3,0,1)
              - 55.9370025 M(3,0,0) - 55.9370025 P(1,1,3,0) >= -106.75137
 C5(3,0,1,1): - 0.42 M(1,1,1) + W(3,0) - 55.9370025 P(1,1,3,0) >= -55.9370025
 C1(3,0,2,0): P(2,0,3,0) + P(3,0,2,0)  = 1
 C3(3,0,2,0): - W(2,0) - 0.16 M(2,0,1) - 55.9370025 M(2,0,0)
              - 55.9370025 M(2,0,2) + W(3,0) - 55.9370025 P(2,0,3,0)
              >= -102.994305
 C4(3,0,2,0): - W(2,0) - 0.16 M(2,0,1) + W(3,0) - 55.9370025 M(3,0,1)
              - 55.9370025 M(3,0,0) - 55.9370025 P(2,0,3,0) >= -102.994305
 C5(3,0,2,0): - 0.16 M(2,0,1) + W(3,0) - 55.9370025 P(2,0,3,0) >= -55.9370025
 C1(3,0,2,1): P(2,1,3,0) + P(3,0,2,1)  = 1
 C3(3,0,2,1): - W(2,1) - 0.16 M(2,1,1) - 55.9370025 M(2,1,0)
              - 55.9370025 M(2,1,2) + W(3,0) - 55.9370025 P(2,1,3,0)
              >= -104.289105
 C4(3,0,2,1): - W(2,1) - 0.16 M(2,1,1) + W(3,0) - 55.9370025 M(3,0,1)
              - 55.9370025 M(3,0,0) - 55.9370025 P(2,1,3,0) >= -104.289105
 C5(3,0,2,1): - 0.16 M(2,1,1) + W(3,0) - 55.9370025 P(2,1,3,0) >= -55.9370025
 C7(3,0):     M(3,0,1) + M(3,0,0) + M(3,0,2)  = 1
 C8(3,0):     M(3,0,2)  = 1
 C1(3,1,0,0): P(0,0,3,1) + P(3,1,0,0)  = 1
 C3(3,1,0,0): - W(0,0) - 55.9370025 M(0,0,0) - 0.42 M(0,0,1)
              - 55.9370025 P(0,0,3,1) + W(3,1) - 55.9370025 M(0,0,2)
              >= -104.976355
 C4(3,1,0,0): - W(0,0) - 0.42 M(0,0,1) - 55.9370025 P(0,0,3,1) + W(3,1)
              - 55.9370025 M(3,1,1) - 55.9370025 M(3,1,0) >= -104.976355
 C5(3,1,0,0): - 0.42 M(0,0,1) - 55.9370025 P(0,0,3,1) + W(3,1) >= -55.9370025
 C1(3,1,1,0): P(1,0,3,1) + P(3,1,1,0)  = 1
 C3(3,1,1,0): - W(1,0) - 0.42 M(1,0,1) - 55.9370025 M(1,0,0)
              - 55.9370025 M(1,0,2) + W(3,1) - 55.9370025 P(1,0,3,1)
              >= -110.297555
 C4(3,1,1,0): - W(1,0) - 0.42 M(1,0,1) + W(3,1) - 55.9370025 M(3,1,1)
              - 55.9370025 M(3,1,0) - 55.9370025 P(1,0,3,1) >= -110.297555
 C5(3,1,1,0): - 0.42 M(1,0,1) + W(3,1) - 55.9370025 P(1,0,3,1) >= -55.9370025
 C1(3,1,1,1): P(1,1,3,1) + P(3,1,1,1)  = 1
 C3(3,1,1,1): - W(1,1) - 0.42 M(1,1,1) - 55.9370025 M(1,1,0)
              - 55.9370025 M(1,1,2) + W(3,1) - 55.9370025 P(1,1,3,1)
              >= -106.75137
 C4(3,1,1,1): - W(1,1) - 0.42 M(1,1,1) + W(3,1) - 55.9370025 M(3,1,1)
              - 55.9370025 M(3,1,0) - 55.9370025 P(1,1,3,1) >= -106.75137
 C5(3,1,1,1): - 0.42 M(1,1,1) + W(3,1) - 55.9370025 P(1,1,3,1) >= -55.9370025
 C1(3,1,2,0): P(2,0,3,1) + P(3,1,2,0)  = 1
 C3(3,1,2,0): - W(2,0) - 0.16 M(2,0,1) - 55.9370025 M(2,0,0)
              - 55.9370025 M(2,0,2) + W(3,1) - 55.9370025 P(2,0,3,1)
              >= -102.994305
 C4(3,1,2,0): - W(2,0) - 0.16 M(2,0,1) + W(3,1) - 55.9370025 M(3,1,1)
              - 55.9370025 M(3,1,0) - 55.9370025 P(2,0,3,1) >= -102.994305
 C5(3,1,2,0): - 0.16 M(2,0,1) + W(3,1) - 55.9370025 P(2,0,3,1) >= -55.9370025
 C1(3,1,2,1): P(2,1,3,1) + P(3,1,2,1)  = 1
 C3(3,1,2,1): - W(2,1) - 0.16 M(2,1,1) - 55.9370025 M(2,1,0)
              - 55.9370025 M(2,1,2) + W(3,1) - 55.9370025 P(2,1,3,1)
              >= -104.289105
 C4(3,1,2,1): - W(2,1) - 0.16 M(2,1,1) + W(3,1) - 55.9370025 M(3,1,1)
              - 55.9370025 M(3,1,0) - 55.9370025 P(2,1,3,1) >= -104.289105
 C5(3,1,2,1): - 0.16 M(2,1,1) + W(3,1) - 55.9370025 P(2,1,3,1) >= -55.9370025
 C2(3,1):     - W(3,0) - 0.16 M(3,0,1) + W(3,1) >= 1.24
 C7(3,1):     M(3,1,1) + M(3,1,0) + M(3,1,2)  = 1
 C8(3,1):     M(3,1,2)  = 0
 C1(3,2,0,0): P(0,0,3,2) + P(3,2,0,0)  = 1
 C3(3,2,0,0): - W(0,0) - 55.9370025 M(0,0,0) - 0.42 M(0,0,1)
              - 55.9370025 P(0,0,3,2) + W(3,2) - 55.9370025 M(0,0,2)
              >= -104.976355
 C4(3,2,0,0): - W(0,0) - 0.42 M(0,0,1) - 55.9370025 P(0,0,3,2) + W(3,2)
              - 55.9370025 M(3,2,1) - 55.9370025 M(3,2,0) >= -104.976355
 C5(3,2,0,0): - 0.42 M(0,0,1) - 55.9370025 P(0,0,3,2) + W(3,2) >= -55.9370025
 C1(3,2,1,0): P(1,0,3,2) + P(3,2,1,0)  = 1
 C3(3,2,1,0): - W(1,0) - 0.42 M(1,0,1) - 55.9370025 M(1,0,0)
              - 55.9370025 M(1,0,2) + W(3,2) - 55.9370025 P(1,0,3,2)
              >= -110.297555
 C4(3,2,1,0): - W(1,0) - 0.42 M(1,0,1) + W(3,2) - 55.9370025 M(3,2,1)
              - 55.9370025 M(3,2,0) - 55.9370025 P(1,0,3,2) >= -110.297555
 C5(3,2,1,0): - 0.42 M(1,0,1) + W(3,2) - 55.9370025 P(1,0,3,2) >= -55.9370025
 C1(3,2,1,1): P(1,1,3,2) + P(3,2,1,1)  = 1
 C3(3,2,1,1): - W(1,1) - 0.42 M(1,1,1) - 55.9370025 M(1,1,0)
              - 55.9370025 M(1,1,2) + W(3,2) - 55.9370025 P(1,1,3,2)
              >= -106.75137
 C4(3,2,1,1): - W(1,1) - 0.42 M(1,1,1) + W(3,2) - 55.9370025 M(3,2,1)
              - 55.9370025 M(3,2,0) - 55.9370025 P(1,1,3,2) >= -106.75137
 C5(3,2,1,1): - 0.42 M(1,1,1) + W(3,2) - 55.9370025 P(1,1,3,2) >= -55.9370025
 C1(3,2,2,0): P(2,0,3,2) + P(3,2,2,0)  = 1
 C3(3,2,2,0): - W(2,0) - 0.16 M(2,0,1) - 55.9370025 M(2,0,0)
              - 55.9370025 M(2,0,2) + W(3,2) - 55.9370025 P(2,0,3,2)
              >= -102.994305
 C4(3,2,2,0): - W(2,0) - 0.16 M(2,0,1) + W(3,2) - 55.9370025 M(3,2,1)
              - 55.9370025 M(3,2,0) - 55.9370025 P(2,0,3,2) >= -102.994305
 C5(3,2,2,0): - 0.16 M(2,0,1) + W(3,2) - 55.9370025 P(2,0,3,2) >= -55.9370025
 C1(3,2,2,1): P(2,1,3,2) + P(3,2,2,1)  = 1
 C3(3,2,2,1): - W(2,1) - 0.16 M(2,1,1) - 55.9370025 M(2,1,0)
              - 55.9370025 M(2,1,2) + W(3,2) - 55.9370025 P(2,1,3,2)
              >= -104.289105
 C4(3,2,2,1): - W(2,1) - 0.16 M(2,1,1) + W(3,2) - 55.9370025 M(3,2,1)
              - 55.9370025 M(3,2,0) - 55.9370025 P(2,1,3,2) >= -104.289105
 C5(3,2,2,1): - 0.16 M(2,1,1) + W(3,2) - 55.9370025 P(2,1,3,2) >= -55.9370025
 C2(3,2):     - W(3,1) - 0.16 M(3,1,1) + W(3,2) >= 1.42
 C7(3,2):     M(3,2,1) + M(3,2,0) + M(3,2,2)  = 1
 C8(3,2):     M(3,2,2)  = 1
 C9(3):       L(3,0) + L(3,1) + L(3,2)  = 1
 C10(3):      L(3,1) >= 0
Bounds
 0 <= P(0,0,1,0) <= 1
 0 <= P(1,0,0,0) <= 1
 0 <= M(1,0,1) <= 1
 0 <= M(1,0,0) <= 1
 0 <= M(1,0,2) <= 1
 0 <= M(0,0,0) <= 1
 0 <= M(0,0,1) <= 1
 0 <= P(0,0,1,1) <= 1
 0 <= P(1,1,0,0) <= 1
 0 <= M(1,1,1) <= 1
 0 <= M(1,1,0) <= 1
 0 <= M(1,1,2) <= 1
 0 <= P(0,0,2,0) <= 1
 0 <= P(2,0,0,0) <= 1
 0 <= M(2,0,1) <= 1
 0 <= M(2,0,0) <= 1
 0 <= M(2,0,2) <= 1
 0 <= P(0,0,2,1) <= 1
 0 <= P(2,1,0,0) <= 1
 0 <= M(2,1,1) <= 1
 0 <= M(2,1,0) <= 1
 0 <= M(2,1,2) <= 1
 0 <= P(0,0,3,0) <= 1
 0 <= P(3,0,0,0) <= 1
 0 <= M(3,0,1) <= 1
 0 <= M(3,0,0) <= 1
 0 <= M(3,0,2) <= 1
 0 <= P(0,0,3,1) <= 1
 0 <= P(3,1,0,0) <= 1
 0 <= M(3,1,1) <= 1
 0 <= M(3,1,0) <= 1
 0 <= M(3,1,2) <= 1
 0 <= P(0,0,3,2) <= 1
 0 <= P(3,2,0,0) <= 1
 0 <= M(3,2,1) <= 1
 0 <= M(3,2,0) <= 1
 0 <= M(3,2,2) <= 1
 0 <= M(0,0,2) <= 1
 0 <= L(0,0) <= 1
 0 <= L(0,1) <= 1
 0 <= L(0,2) <= 1
 0 <= P(1,0,2,0) <= 1
 0 <= P(2,0,1,0) <= 1
 0 <= P(1,0,2,1) <= 1
 0 <= P(2,1,1,0) <= 1
 0 <= P(1,0,3,0) <= 1
 0 <= P(3,0,1,0) <= 1
 0 <= P(1,0,3,1) <= 1
 0 <= P(3,1,1,0) <= 1
 0 <= P(1,0,3,2) <= 1
 0 <= P(3,2,1,0) <= 1
 0 <= P(1,1,2,0) <= 1
 0 <= P(2,0,1,1) <= 1
 0 <= P(1,1,2,1) <= 1
 0 <= P(2,1,1,1) <= 1
 0 <= P(1,1,3,0) <= 1
 0 <= P(3,0,1,1) <= 1
 0 <= P(1,1,3,1) <= 1
 0 <= P(3,1,1,1) <= 1
 0 <= P(1,1,3,2) <= 1
 0 <= P(3,2,1,1) <= 1
 0 <= L(1,0) <= 1
 0 <= L(1,1) <= 1
 0 <= L(1,2) <= 1
 0 <= P(2,0,3,0) <= 1
 0 <= P(3,0,2,0) <= 1
 0 <= P(2,0,3,1) <= 1
 0 <= P(3,1,2,0) <= 1
 0 <= P(2,0,3,2) <= 1
 0 <= P(3,2,2,0) <= 1
 0 <= P(2,1,3,0) <= 1
 0 <= P(3,0,2,1) <= 1
 0 <= P(2,1,3,1) <= 1
 0 <= P(3,1,2,1) <= 1
 0 <= P(2,1,3,2) <= 1
 0 <= P(3,2,2,1) <= 1
 0 <= L(2,0) <= 1
 0 <= L(2,1) <= 1
 0 <= L(2,2) <= 1
 0 <= L(3,0) <= 1
 0 <= L(3,1) <= 1
 0 <= L(3,2) <= 1
End
